# Components (V)
1 2 3 4 5 6 7 8 9 10 11 12 13 14 15 16 17 18 19 20 21 22 23 24 25 26 27 28 29 30 31 32 33 34 35 36 37 38 39 40 41 42 43 44 45 46 47 48 49 50 51 52 53 54 55 56 57 58 59 60 61 62 63 64 65 66 67 68 69 70 71 72 73 74 75 76 77 78 79 80 81 82 83 84 85 86 87 88 89 90 91 92 93 94 95 96 97 98 99 100 101 102 103 104 105 106 107 108 109 110 111 112 113 114 115 116 117 118 119 120 121 122 123 124 125 126 127 128 129 130 131 132 133 134 135 136 137 138 139 140 141 142 143 144 145 146 147 148 149 150 151 152 153 154 155 156 157 158 159 160 161 162 163 164 165 166 167 168 169 170 171 172 173 174 175 176 177 178 179 180 181 182 183 184 185 186 187 188 189 190 191 192 193 194 195 196 197 198 199 200 201 202 203 204 205 206 207 208 209 210 211 212 213 214 215 216 217 218 219 220 221 222 223 224 225 226 227 228 229 230 231 232 233 234 235 236 237 238 239 240 241 242 243 244 245 246 247 248 249 250 251 252 253 254 255 256 257 258 259 260 261 262 263 264 265 266 267 268 269 270 271 272 273 274 275 276 277 278 279 280 281 282 283 284 285 286 287 288 289 290 291 292 293 294 295 296 297 298 299 300 301 302 303 304 305 306 307 308 309 310 311 312 313 314 315 316 317 318 319 320 321 322 323 324 325 326 327 328 329 330 331 332 333 334 335 336 337 338 339 340 341 342 343 344 345 346 347 348 349 350 351 352 353 354 355 356

# Precedence arcs (E)
1 17
2 20
3 21
4 23
5 15
5 24
6 16
6 24
6 27
7 18
7 24
7 25
8 19
8 25
8 26
9 22
9 24
9 54
10 24
10 25
10 28
11 82
12 65
14 29
14 47
15 30
16 31
17 33
18 34
19 35
20 37
21 38
22 36
23 39
24 32
24 41
24 82
25 37
25 38
25 39
25 40
25 42
25 97
26 37
26 49
27 37
27 38
27 39
27 40
28 37
30 46
31 46
32 43
33 44
34 46
35 47
36 45
37 242
38 46
39 125
40 46
40 50
40 51
40 54
41 46
41 47
41 52
41 53
41 55
42 48
42 49
43 56
44 57
45 61
46 58
46 94
47 72
48 59
49 63
50 59
50 60
50 66
51 59
51 60
52 59
52 62
52 64
52 67
53 59
53 60
53 65
54 59
54 60
55 92
55 110
56 70
57 72
58 71
59 68
60 69
60 72
60 77
61 73
61 78
61 82
62 72
62 75
62 81
63 80
64 81
65 74
66 72
66 76
66 79
67 72
67 73
67 74
68 83
69 84
70 85
71 88
72 87
72 91
73 86
73 89
73 90
73 97
73 104
74 89
74 90
74 91
75 272
76 93
77 105
77 183
78 249
79 89
79 90
79 95
80 89
80 90
80 91
80 92
80 93
80 96
80 108
81 93
82 89
82 94
83 101
84 98
85 102
86 99
87 100
88 102
89 109
90 102
90 169
91 102
91 103
91 104
92 102
92 106
92 107
93 102
93 105
94 102
95 102
96 103
96 110
97 108
97 337
98 119
99 111
100 115
101 118
102 112
102 119
102 147
103 113
103 121
103 256
103 263
104 114
104 119
104 120
104 121
104 256
105 116
106 117
106 119
106 122
106 123
106 124
106 125
106 126
107 119
107 120
107 121
108 119
108 122
108 126
109 119
109 125
110 155
111 128
112 129
113 130
114 131
115 127
116 132
117 133
118 134
123 135
124 135
124 136
124 143
125 135
125 136
126 156
127 137
128 138
129 143
130 141
131 142
132 142
133 142
134 142
135 139
135 147
136 140
136 142
136 144
136 145
136 146
137 148
138 150
139 152
140 153
141 154
142 149
142 151
143 155
144 155
144 156
144 157
145 155
145 158
145 160
146 157
147 159
147 161
147 182
148 162
149 163
150 165
151 164
152 167
153 166
154 166
155 166
155 167
157 178
157 353
158 166
158 167
158 169
159 168
159 170
161 335
162 172
163 173
164 177
165 174
166 171
166 175
166 176
167 180
167 182
167 183
168 176
168 177
168 178
168 179
168 181
169 176
169 177
169 182
170 176
170 177
170 183
171 184
172 191
173 186
174 187
175 189
176 185
176 188
176 219
177 191
177 233
178 190
179 191
179 192
179 193
180 191
180 192
180 193
180 241
181 191
181 192
181 256
182 258
183 192
184 197
185 194
186 198
187 198
188 195
189 198
190 196
191 198
191 199
191 202
191 204
191 206
192 201
192 203
192 207
193 198
193 199
193 200
193 205
194 215
195 210
196 211
197 212
198 213
198 218
199 208
199 294
200 209
200 215
200 216
201 214
201 216
203 216
203 217
204 219
206 246
206 335
207 257
208 220
209 221
210 222
211 223
212 224
213 225
214 226
215 227
215 228
216 228
216 234
217 229
217 233
219 228
219 230
219 231
219 232
220 240
221 237
222 241
223 238
224 240
225 240
226 243
227 239
228 235
228 242
228 248
229 236
229 255
229 336
230 245
230 246
230 249
232 345
233 244
233 247
233 250
233 292
234 240
234 280
234 284
235 251
236 252
237 256
238 253
239 255
240 255
240 257
241 255
242 254
242 262
243 294
244 263
245 259
245 296
246 260
246 261
247 255
249 255
249 258
249 281
251 267
252 269
253 265
254 266
255 264
255 268
256 270
257 270
258 269
258 270
258 271
260 273
260 354
262 270
262 271
262 272
264 274
265 281
266 282
267 276
268 277
269 299
269 314
270 275
270 278
270 279
270 283
271 279
271 284
272 278
272 285
273 280
274 287
275 290
276 294
277 291
278 286
278 296
278 301
279 288
279 293
279 295
280 289
281 292
281 296
282 299
282 300
284 298
285 297
285 328
286 302
287 303
288 304
289 305
290 307
291 311
292 306
292 309
292 312
293 308
294 309
295 310
296 309
296 310
297 309
297 356
298 309
301 313
301 314
302 322
303 315
304 316
305 317
306 318
307 323
308 319
309 320
309 329
310 321
310 327
311 324
313 326
314 325
314 328
315 330
316 332
317 331
318 335
319 336
320 333
321 334
322 335
323 335
323 339
324 338
325 335
325 340
326 335
326 337
326 341
328 335
330 343
331 344
332 342
333 345
334 345
336 346
336 348
338 349
341 347
342 350
343 351
344 352
345 355
346 353
346 354
347 354
348 356

# Target components (T)
261 205

# Revenues (r)
1 26
2 22
3 28
4 22
5 22
6 26
7 24
8 27
9 28
10 28
11 24
12 22
13 26
14 29
15 22
16 21
17 28
18 21
19 30
20 22
21 29
22 23
23 24
24 28
25 28
26 29
27 30
28 30
29 27
30 29
31 27
32 27
33 29
34 20
35 25
36 24
37 22
38 27
39 25
40 20
41 24
42 21
43 24
44 24
45 21
46 30
47 30
48 30
49 24
50 29
51 20
52 26
53 22
54 22
55 20
56 29
57 23
58 22
59 23
60 23
61 23
62 29
63 27
64 22
65 28
66 28
67 25
68 20
69 21
70 27
71 28
72 26
73 27
74 29
75 25
76 26
77 30
78 29
79 25
80 29
81 30
82 25
83 23
84 25
85 28
86 20
87 28
88 20
89 30
90 30
91 30
92 25
93 27
94 28
95 22
96 20
97 28
98 21
99 22
100 22
101 28
102 26
103 29
104 27
105 22
106 30
107 26
108 25
109 26
110 27
111 24
112 21
113 28
114 25
115 26
116 25
117 28
118 21
119 25
120 27
121 30
122 27
123 29
124 22
125 24
126 26
127 28
128 20
129 24
130 22
131 22
132 24
133 25
134 24
135 23
136 28
137 22
138 21
139 24
140 21
141 24
142 22
143 23
144 25
145 21
146 21
147 28
148 21
149 24
150 21
151 27
152 24
153 26
154 25
155 22
156 22
157 30
158 25
159 23
160 29
161 22
162 22
163 21
164 24
165 30
166 30
167 23
168 27
169 21
170 28
171 21
172 30
173 21
174 20
175 26
176 27
177 21
178 29
179 28
180 25
181 26
182 25
183 26
184 28
185 27
186 28
187 25
188 29
189 28
190 28
191 24
192 27
193 20
194 21
195 20
196 28
197 29
198 24
199 30
200 29
201 29
202 22
203 27
204 23
205 26
206 21
207 23
208 22
209 27
210 29
211 22
212 30
213 28
214 20
215 29
216 21
217 25
218 30
219 24
220 22
221 22
222 28
223 21
224 27
225 23
226 25
227 28
228 30
229 21
230 20
231 21
232 23
233 30
234 21
235 20
236 29
237 22
238 30
239 20
240 28
241 24
242 28
243 27
244 27
245 29
246 23
247 23
248 20
249 24
250 25
251 29
252 29
253 23
254 26
255 28
256 24
257 23
258 22
259 24
260 30
261 30
262 23
263 25
264 25
265 21
266 30
267 26
268 24
269 22
270 24
271 20
272 24
273 22
274 27
275 29
276 22
277 28
278 29
279 30
280 26
281 23
282 26
283 23
284 23
285 23
286 26
287 21
288 24
289 22
290 22
291 20
292 20
293 22
294 21
295 25
296 26
297 21
298 27
299 25
300 22
301 29
302 20
303 22
304 29
305 23
306 21
307 27
308 24
309 27
310 23
311 25
312 29
313 26
314 27
315 29
316 21
317 22
318 30
319 21
320 26
321 26
322 24
323 21
324 30
325 25
326 30
327 25
328 27
329 22
330 28
331 30
332 27
333 30
334 25
335 25
336 22
337 20
338 23
339 26
340 23
341 21
342 22
343 21
344 27
345 29
346 23
347 20
348 24
349 20
350 21
351 28
352 23
353 26
354 25
355 20
356 30

# Costs (c)
1 7
2 9
3 10
4 3
5 7
6 8
7 7
8 2
9 2
10 5
11 10
12 4
13 7
14 9
15 9
16 8
17 4
18 9
19 3
20 8
21 5
22 1
23 9
24 5
25 2
26 6
27 8
28 2
29 9
30 4
31 7
32 9
33 8
34 1
35 9
36 6
37 5
38 5
39 2
40 4
41 9
42 8
43 7
44 10
45 8
46 2
47 7
48 2
49 6
50 7
51 5
52 2
53 9
54 10
55 3
56 5
57 2
58 1
59 10
60 2
61 4
62 7
63 2
64 4
65 7
66 10
67 5
68 4
69 6
70 4
71 9
72 3
73 4
74 6
75 3
76 1
77 3
78 6
79 5
80 5
81 9
82 1
83 6
84 10
85 3
86 1
87 3
88 4
89 2
90 2
91 9
92 2
93 5
94 3
95 8
96 3
97 3
98 5
99 4
100 2
101 3
102 8
103 3
104 2
105 4
106 5
107 2
108 9
109 9
110 3
111 2
112 7
113 3
114 3
115 1
116 1
117 6
118 4
119 2
120 1
121 8
122 10
123 4
124 8
125 9
126 7
127 9
128 7
129 5
130 9
131 7
132 2
133 2
134 9
135 7
136 7
137 4
138 3
139 5
140 9
141 8
142 4
143 1
144 1
145 6
146 10
147 3
148 8
149 2
150 6
151 3
152 3
153 2
154 4
155 6
156 5
157 9
158 5
159 8
160 5
161 4
162 7
163 6
164 9
165 2
166 3
167 8
168 8
169 9
170 2
171 7
172 7
173 7
174 8
175 7
176 6
177 4
178 6
179 2
180 9
181 10
182 2
183 2
184 8
185 4
186 8
187 5
188 8
189 10
190 9
191 5
192 3
193 4
194 5
195 5
196 6
197 8
198 2
199 7
200 9
201 10
202 2
203 1
204 5
205 1
206 9
207 5
208 9
209 10
210 10
211 4
212 6
213 3
214 1
215 9
216 9
217 7
218 3
219 9
220 4
221 2
222 3
223 9
224 8
225 6
226 5
227 5
228 9
229 7
230 3
231 5
232 2
233 3
234 9
235 2
236 3
237 1
238 6
239 8
240 6
241 2
242 9
243 9
244 2
245 8
246 6
247 1
248 10
249 4
250 2
251 1
252 4
253 7
254 2
255 3
256 2
257 6
258 10
259 10
260 6
261 7
262 4
263 3
264 8
265 3
266 9
267 3
268 8
269 1
270 2
271 1
272 6
273 2
274 3
275 2
276 7
277 6
278 9
279 2
280 9
281 8
282 1
283 10
284 2
285 6
286 10
287 2
288 3
289 1
290 3
291 8
292 10
293 7
294 1
295 8
296 6
297 8
298 10
299 8
300 6
301 10
302 2
303 9
304 1
305 8
306 3
307 8
308 2
309 9
310 5
311 4
312 9
313 6
314 2
315 1
316 5
317 5
318 4
319 2
320 2
321 4
322 2
323 2
324 3
325 2
326 2
327 10
328 6
329 2
330 8
331 8
332 1
333 5
334 4
335 8
336 10
337 3
338 6
339 6
340 8
341 9
342 8
343 5
344 7
345 6
346 10
347 7
348 4
349 10
350 3
351 7
352 7
353 5
354 3
355 5
356 3

# Durations (p)
1 385
2 169
3 81
4 198
5 386
6 75
7 40
8 226
9 127
10 122
11 157
12 175
13 108
14 51
15 150
16 84
17 183
18 68
19 119
20 267
21 285
22 43
23 155
24 98
25 23
26 170
27 180
28 192
29 80
30 231
31 217
32 111
33 56
34 88
35 142
36 214
37 62
38 134
39 301
40 83
41 44
42 70
43 38
44 159
45 78
46 237
47 281
48 117
49 93
50 181
51 145
52 42
53 146
54 150
55 131
56 101
57 228
58 61
59 97
60 109
61 95
62 96
63 311
64 93
65 159
66 33
67 124
68 71
69 230
70 305
71 115
72 248
73 187
74 71
75 27
76 105
77 181
78 171
79 32
80 86
81 242
82 170
83 69
84 49
85 203
86 85
87 173
88 77
89 47
90 241
91 193
92 257
93 22
94 109
95 275
96 79
97 35
98 29
99 195
100 90
101 150
102 130
103 253
104 115
105 117
106 95
107 53
108 286
109 130
110 198
111 62
112 155
113 31
114 78
115 120
116 226
117 60
118 55
119 101
120 170
121 116
122 78
123 159
124 216
125 28
126 124
127 43
128 238
129 113
130 115
131 42
132 166
133 119
134 156
135 187
136 349
137 132
138 173
139 210
140 94
141 153
142 129
143 47
144 139
145 259
146 230
147 51
148 225
149 37
150 30
151 61
152 378
153 142
154 110
155 80
156 130
157 136
158 170
159 112
160 242
161 60
162 248
163 132
164 65
165 66
166 75
167 96
168 87
169 222
170 152
171 210
172 178
173 37
174 103
175 99
176 64
177 100
178 32
179 354
180 79
181 35
182 79
183 141
184 278
185 269
186 214
187 145
188 327
189 21
190 151
191 96
192 135
193 228
194 56
195 42
196 180
197 133
198 110
199 99
200 35
201 190
202 94
203 153
204 144
205 199
206 188
207 47
208 37
209 182
210 117
211 28
212 170
213 140
214 98
215 93
216 76
217 213
218 154
219 60
220 257
221 244
222 225
223 172
224 27
225 92
226 61
227 142
228 60
229 76
230 100
231 22
232 161
233 122
234 108
235 100
236 138
237 178
238 152
239 153
240 191
241 230
242 210
243 144
244 122
245 269
246 155
247 180
248 236
249 110
250 268
251 21
252 62
253 163
254 85
255 88
256 43
257 394
258 225
259 70
260 226
261 158
262 68
263 188
264 125
265 79
266 123
267 22
268 82
269 283
270 214
271 63
272 41
273 183
274 85
275 30
276 41
277 39
278 53
279 314
280 126
281 119
282 31
283 88
284 362
285 53
286 235
287 234
288 157
289 91
290 26
291 65
292 199
293 167
294 46
295 78
296 146
297 29
298 191
299 158
300 37
301 38
302 139
303 92
304 203
305 127
306 141
307 273
308 104
309 28
310 33
311 74
312 173
313 302
314 145
315 173
316 68
317 153
318 64
319 207
320 100
321 191
322 186
323 77
324 287
325 155
326 109
327 72
328 68
329 253
330 213
331 249
332 82
333 35
334 139
335 72
336 52
337 249
338 191
339 136
340 152
341 70
342 31
343 299
344 119
345 137
346 124
347 106
348 196
349 134
350 133
351 141
352 59
353 140
354 247
355 126
356 69

orderrules
1 17 au000 avant au016
2 20 au001 avant au019
3 21 au002 avant au020
4 23 au003 avant au022
5 15 au004 avant au014
5 24 au004 avant au023
6 16 au005 avant au015
6 24 au005 avant au023
6 27 au005 avant au026
7 18 au006 avant au017
7 24 au006 avant au023
7 25 au006 avant au024
8 19 au007 avant au018
8 25 au007 avant au024
8 26 au007 avant au025
9 22 au008 avant au021
9 24 au008 avant au023
9 54 au008 avant au053
10 24 au009 avant au023
10 25 au009 avant au024
10 28 au009 avant au027
11 82 au010 avant au081
12 65 au011 avant au064
14 29 au013 avant au028
14 47 au013 avant au046
15 30 au014 avant au029
16 31 au015 avant au030
17 33 au016 avant au032
18 34 au017 avant au033
19 35 au018 avant au034
20 37 au019 avant au036
21 38 au020 avant au037
22 36 au021 avant au035
23 39 au022 avant au038
24 32 au023 avant au031
24 41 au023 avant au040
24 82 au023 avant au081
25 37 au024 avant au036
25 38 au024 avant au037
25 39 au024 avant au038
25 40 au024 avant au039
25 42 au024 avant au041
25 97 au024 avant au096
26 37 au025 avant au036
26 49 au025 avant au048
27 37 au026 avant au036
27 38 au026 avant au037
27 39 au026 avant au038
27 40 au026 avant au039
28 37 au027 avant au036
30 46 au029 avant au045
31 46 au030 avant au045
32 43 au031 avant au042
33 44 au032 avant au043
34 46 au033 avant au045
35 47 au034 avant au046
36 45 au035 avant au044
37 242 au036 avant au241
38 46 au037 avant au045
39 125 au038 avant au124
40 46 au039 avant au045
40 50 au039 avant au049
40 51 au039 avant au050
40 54 au039 avant au053
41 46 au040 avant au045
41 47 au040 avant au046
41 52 au040 avant au051
41 53 au040 avant au052
41 55 au040 avant au054
42 48 au041 avant au047
42 49 au041 avant au048
43 56 au042 avant au055
44 57 au043 avant au056
45 61 au044 avant au060
46 58 au045 avant au057
46 94 au045 avant au093
47 72 au046 avant au071
48 59 au047 avant au058
49 63 au048 avant au062
50 59 au049 avant au058
50 60 au049 avant au059
50 66 au049 avant au065
51 59 au050 avant au058
51 60 au050 avant au059
52 59 au051 avant au058
52 62 au051 avant au061
52 64 au051 avant au063
52 67 au051 avant au066
53 59 au052 avant au058
53 60 au052 avant au059
53 65 au052 avant au064
54 59 au053 avant au058
54 60 au053 avant au059
55 92 au054 avant au091
55 110 au054 avant au109
56 70 au055 avant au069
57 72 au056 avant au071
58 71 au057 avant au070
59 68 au058 avant au067
60 69 au059 avant au068
60 72 au059 avant au071
60 77 au059 avant au076
61 73 au060 avant au072
61 78 au060 avant au077
61 82 au060 avant au081
62 72 au061 avant au071
62 75 au061 avant au074
62 81 au061 avant au080
63 80 au062 avant au079
64 81 au063 avant au080
65 74 au064 avant au073
66 72 au065 avant au071
66 76 au065 avant au075
66 79 au065 avant au078
67 72 au066 avant au071
67 73 au066 avant au072
67 74 au066 avant au073
68 83 au067 avant au082
69 84 au068 avant au083
70 85 au069 avant au084
71 88 au070 avant au087
72 87 au071 avant au086
72 91 au071 avant au090
73 86 au072 avant au085
73 89 au072 avant au088
73 90 au072 avant au089
73 97 au072 avant au096
73 104 au072 avant au103
74 89 au073 avant au088
74 90 au073 avant au089
74 91 au073 avant au090
75 272 au074 avant au271
76 93 au075 avant au092
77 105 au076 avant au104
77 183 au076 avant au182
78 249 au077 avant au248
79 89 au078 avant au088
79 90 au078 avant au089
79 95 au078 avant au094
80 89 au079 avant au088
80 90 au079 avant au089
80 91 au079 avant au090
80 92 au079 avant au091
80 93 au079 avant au092
80 96 au079 avant au095
80 108 au079 avant au107
81 93 au080 avant au092
82 89 au081 avant au088
82 94 au081 avant au093
83 101 au082 avant au100
84 98 au083 avant au097
85 102 au084 avant au101
86 99 au085 avant au098
87 100 au086 avant au099
88 102 au087 avant au101
89 109 au088 avant au108
90 102 au089 avant au101
90 169 au089 avant au168
91 102 au090 avant au101
91 103 au090 avant au102
91 104 au090 avant au103
92 102 au091 avant au101
92 106 au091 avant au105
92 107 au091 avant au106
93 102 au092 avant au101
93 105 au092 avant au104
94 102 au093 avant au101
95 102 au094 avant au101
96 103 au095 avant au102
96 110 au095 avant au109
97 108 au096 avant au107
97 337 au096 avant au336
98 119 au097 avant au118
99 111 au098 avant au110
100 115 au099 avant au114
101 118 au100 avant au117
102 112 au101 avant au111
102 119 au101 avant au118
102 147 au101 avant au146
103 113 au102 avant au112
103 121 au102 avant au120
103 256 au102 avant au255
103 263 au102 avant au262
104 114 au103 avant au113
104 119 au103 avant au118
104 120 au103 avant au119
104 121 au103 avant au120
104 256 au103 avant au255
105 116 au104 avant au115
106 117 au105 avant au116
106 119 au105 avant au118
106 122 au105 avant au121
106 123 au105 avant au122
106 124 au105 avant au123
106 125 au105 avant au124
106 126 au105 avant au125
107 119 au106 avant au118
107 120 au106 avant au119
107 121 au106 avant au120
108 119 au107 avant au118
108 122 au107 avant au121
108 126 au107 avant au125
109 119 au108 avant au118
109 125 au108 avant au124
110 155 au109 avant au154
111 128 au110 avant au127
112 129 au111 avant au128
113 130 au112 avant au129
114 131 au113 avant au130
115 127 au114 avant au126
116 132 au115 avant au131
117 133 au116 avant au132
118 134 au117 avant au133
123 135 au122 avant au134
124 135 au123 avant au134
124 136 au123 avant au135
124 143 au123 avant au142
125 135 au124 avant au134
125 136 au124 avant au135
126 156 au125 avant au155
127 137 au126 avant au136
128 138 au127 avant au137
129 143 au128 avant au142
130 141 au129 avant au140
131 142 au130 avant au141
132 142 au131 avant au141
133 142 au132 avant au141
134 142 au133 avant au141
135 139 au134 avant au138
135 147 au134 avant au146
136 140 au135 avant au139
136 142 au135 avant au141
136 144 au135 avant au143
136 145 au135 avant au144
136 146 au135 avant au145
137 148 au136 avant au147
138 150 au137 avant au149
139 152 au138 avant au151
140 153 au139 avant au152
141 154 au140 avant au153
142 149 au141 avant au148
142 151 au141 avant au150
143 155 au142 avant au154
144 155 au143 avant au154
144 156 au143 avant au155
144 157 au143 avant au156
145 155 au144 avant au154
145 158 au144 avant au157
145 160 au144 avant au159
146 157 au145 avant au156
147 159 au146 avant au158
147 161 au146 avant au160
147 182 au146 avant au181
148 162 au147 avant au161
149 163 au148 avant au162
150 165 au149 avant au164
151 164 au150 avant au163
152 167 au151 avant au166
153 166 au152 avant au165
154 166 au153 avant au165
155 166 au154 avant au165
155 167 au154 avant au166
157 178 au156 avant au177
157 353 au156 avant au352
158 166 au157 avant au165
158 167 au157 avant au166
158 169 au157 avant au168
159 168 au158 avant au167
159 170 au158 avant au169
161 335 au160 avant au334
162 172 au161 avant au171
163 173 au162 avant au172
164 177 au163 avant au176
165 174 au164 avant au173
166 171 au165 avant au170
166 175 au165 avant au174
166 176 au165 avant au175
167 180 au166 avant au179
167 182 au166 avant au181
167 183 au166 avant au182
168 176 au167 avant au175
168 177 au167 avant au176
168 178 au167 avant au177
168 179 au167 avant au178
168 181 au167 avant au180
169 176 au168 avant au175
169 177 au168 avant au176
169 182 au168 avant au181
170 176 au169 avant au175
170 177 au169 avant au176
170 183 au169 avant au182
171 184 au170 avant au183
172 191 au171 avant au190
173 186 au172 avant au185
174 187 au173 avant au186
175 189 au174 avant au188
176 185 au175 avant au184
176 188 au175 avant au187
176 219 au175 avant au218
177 191 au176 avant au190
177 233 au176 avant au232
178 190 au177 avant au189
179 191 au178 avant au190
179 192 au178 avant au191
179 193 au178 avant au192
180 191 au179 avant au190
180 192 au179 avant au191
180 193 au179 avant au192
180 241 au179 avant au240
181 191 au180 avant au190
181 192 au180 avant au191
181 256 au180 avant au255
182 258 au181 avant au257
183 192 au182 avant au191
184 197 au183 avant au196
185 194 au184 avant au193
186 198 au185 avant au197
187 198 au186 avant au197
188 195 au187 avant au194
189 198 au188 avant au197
190 196 au189 avant au195
191 198 au190 avant au197
191 199 au190 avant au198
191 202 au190 avant au201
191 204 au190 avant au203
191 206 au190 avant au205
192 201 au191 avant au200
192 203 au191 avant au202
192 207 au191 avant au206
193 198 au192 avant au197
193 199 au192 avant au198
193 200 au192 avant au199
193 205 au192 avant au204
194 215 au193 avant au214
195 210 au194 avant au209
196 211 au195 avant au210
197 212 au196 avant au211
198 213 au197 avant au212
198 218 au197 avant au217
199 208 au198 avant au207
199 294 au198 avant au293
200 209 au199 avant au208
200 215 au199 avant au214
200 216 au199 avant au215
201 214 au200 avant au213
201 216 au200 avant au215
203 216 au202 avant au215
203 217 au202 avant au216
204 219 au203 avant au218
206 246 au205 avant au245
206 335 au205 avant au334
207 257 au206 avant au256
208 220 au207 avant au219
209 221 au208 avant au220
210 222 au209 avant au221
211 223 au210 avant au222
212 224 au211 avant au223
213 225 au212 avant au224
214 226 au213 avant au225
215 227 au214 avant au226
215 228 au214 avant au227
216 228 au215 avant au227
216 234 au215 avant au233
217 229 au216 avant au228
217 233 au216 avant au232
219 228 au218 avant au227
219 230 au218 avant au229
219 231 au218 avant au230
219 232 au218 avant au231
220 240 au219 avant au239
221 237 au220 avant au236
222 241 au221 avant au240
223 238 au222 avant au237
224 240 au223 avant au239
225 240 au224 avant au239
226 243 au225 avant au242
227 239 au226 avant au238
228 235 au227 avant au234
228 242 au227 avant au241
228 248 au227 avant au247
229 236 au228 avant au235
229 255 au228 avant au254
229 336 au228 avant au335
230 245 au229 avant au244
230 246 au229 avant au245
230 249 au229 avant au248
232 345 au231 avant au344
233 244 au232 avant au243
233 247 au232 avant au246
233 250 au232 avant au249
233 292 au232 avant au291
234 240 au233 avant au239
234 280 au233 avant au279
234 284 au233 avant au283
235 251 au234 avant au250
236 252 au235 avant au251
237 256 au236 avant au255
238 253 au237 avant au252
239 255 au238 avant au254
240 255 au239 avant au254
240 257 au239 avant au256
241 255 au240 avant au254
242 254 au241 avant au253
242 262 au241 avant au261
243 294 au242 avant au293
244 263 au243 avant au262
245 259 au244 avant au258
245 296 au244 avant au295
246 260 au245 avant au259
246 261 au245 avant au260
247 255 au246 avant au254
249 255 au248 avant au254
249 258 au248 avant au257
249 281 au248 avant au280
251 267 au250 avant au266
252 269 au251 avant au268
253 265 au252 avant au264
254 266 au253 avant au265
255 264 au254 avant au263
255 268 au254 avant au267
256 270 au255 avant au269
257 270 au256 avant au269
258 269 au257 avant au268
258 270 au257 avant au269
258 271 au257 avant au270
260 273 au259 avant au272
260 354 au259 avant au353
262 270 au261 avant au269
262 271 au261 avant au270
262 272 au261 avant au271
264 274 au263 avant au273
265 281 au264 avant au280
266 282 au265 avant au281
267 276 au266 avant au275
268 277 au267 avant au276
269 299 au268 avant au298
269 314 au268 avant au313
270 275 au269 avant au274
270 278 au269 avant au277
270 279 au269 avant au278
270 283 au269 avant au282
271 279 au270 avant au278
271 284 au270 avant au283
272 278 au271 avant au277
272 285 au271 avant au284
273 280 au272 avant au279
274 287 au273 avant au286
275 290 au274 avant au289
276 294 au275 avant au293
277 291 au276 avant au290
278 286 au277 avant au285
278 296 au277 avant au295
278 301 au277 avant au300
279 288 au278 avant au287
279 293 au278 avant au292
279 295 au278 avant au294
280 289 au279 avant au288
281 292 au280 avant au291
281 296 au280 avant au295
282 299 au281 avant au298
282 300 au281 avant au299
284 298 au283 avant au297
285 297 au284 avant au296
285 328 au284 avant au327
286 302 au285 avant au301
287 303 au286 avant au302
288 304 au287 avant au303
289 305 au288 avant au304
290 307 au289 avant au306
291 311 au290 avant au310
292 306 au291 avant au305
292 309 au291 avant au308
292 312 au291 avant au311
293 308 au292 avant au307
294 309 au293 avant au308
295 310 au294 avant au309
296 309 au295 avant au308
296 310 au295 avant au309
297 309 au296 avant au308
297 356 au296 avant au355
298 309 au297 avant au308
301 313 au300 avant au312
301 314 au300 avant au313
302 322 au301 avant au321
303 315 au302 avant au314
304 316 au303 avant au315
305 317 au304 avant au316
306 318 au305 avant au317
307 323 au306 avant au322
308 319 au307 avant au318
309 320 au308 avant au319
309 329 au308 avant au328
310 321 au309 avant au320
310 327 au309 avant au326
311 324 au310 avant au323
313 326 au312 avant au325
314 325 au313 avant au324
314 328 au313 avant au327
315 330 au314 avant au329
316 332 au315 avant au331
317 331 au316 avant au330
318 335 au317 avant au334
319 336 au318 avant au335
320 333 au319 avant au332
321 334 au320 avant au333
322 335 au321 avant au334
323 335 au322 avant au334
323 339 au322 avant au338
324 338 au323 avant au337
325 335 au324 avant au334
325 340 au324 avant au339
326 335 au325 avant au334
326 337 au325 avant au336
326 341 au325 avant au340
328 335 au327 avant au334
330 343 au329 avant au342
331 344 au330 avant au343
332 342 au331 avant au341
333 345 au332 avant au344
334 345 au333 avant au344
336 346 au335 avant au345
336 348 au335 avant au347
338 349 au337 avant au348
341 347 au340 avant au346
342 350 au341 avant au349
343 351 au342 avant au350
344 352 au343 avant au351
345 355 au344 avant au354
346 353 au345 avant au352
346 354 au345 avant au353
347 354 au346 avant au353
348 356 au347 avant au355
